p cnf 15 20
-15 14 6 0
-15 11 -9 0
-15 -8 -4 0
15 7 -2 0
15 -6 4 0
-15 4 -2 0
-13 -12 -10 0
-13 -10 9 0
13 9 -5 0
13 8 1 0
-11 7 2 0
11 6 -4 0
11 3 -1 0
-11 -2 -1 0
10 6 -3 0
10 5 1 0
9 -7 -1 0
9 6 -4 0
8 -7 -2 0
-7 6 4 0
